0.750000 1.000000 1.000000
4
5 2 3 4 5 6 
5 7 8 9 10 11 
5 12 13 14 15 16 
4 17 18 19 20 
1 1 
1 2 
1 2 
1 2 
1 2 
1 2 
1 2 
1 2 
1 2 
1 2 
1 2 
1 2 
1 2 
1 2 
1 2 
1 2 
1 2 
1 2 
1 2 
1 2 
1 2 
1 2 
1 2 
1 2 
1 2 
1 2 
1 2 
1 2 
1 2 
1 2 
1 2 
1 2 
1 2 
1 2 
1 2 
1 2 
1 2 
1 2 
1 2 
1 2 
1 2 
1 2 
1 2 
1 3 
1 3 
1 3 
1 3 
1 3 
1 3 
1 3 
1 3 
1 3 
1 3 
1 3 
1 3 
1 3 
1 3 
1 3 
1 3 
1 3 
1 3 
1 3 
1 3 
1 3 
1 3 
1 3 
1 3 
1 3 
1 3 
1 3 
1 3 
1 3 
1 3 
1 3 
1 3 
1 3 
1 3 
1 3 
1 3 
1 3 
1 3 
1 3 
1 3 
1 3 
1 3 
1 4 
1 4 
1 4 
1 4 
1 4 
1 4 
1 4 
1 4 
1 4 
1 4 
1 4 
1 4 
1 4 
1 4 
1 4 
1 4 
1 4 
1 4 
1 4 
1 4 
1 4 
1 4 
1 4 
1 4 
1 4 
1 4 
1 4 
1 4 
1 4 
1 4 
1 4 
1 4 
1 4 
1 4 
1 4 
1 4 
1 4 
1 4 
1 4 
1 4 
1 4 
1 4 
1 5 
1 5 
1 5 
1 5 
1 5 
1 5 
1 5 
1 5 
1 5 
1 5 
1 5 
1 5 
1 6 
1 6 
1 6 
1 6 
1 6 
1 6 
1 6 
1 6 
1 6 
1 6 
1 6 
1 6 
1 6 
1 6 
1 6 
1 6 
1 6 
1 6 
1 6 
1 6 
1 6 
1 6 
1 6 
1 6 
1 6 
1 6 
1 6 
1 6 
1 6 
1 6 
1 6 
1 6 
1 6 
1 6 
1 6 
1 6 
1 6 
1 6 
1 6 
1 6 
1 6 
1 6 
1 7 
1 7 
1 7 
1 7 
2 7 3 
1 7 
1 7 
2 7 3 
2 7 3 
1 7 
1 7 
1 7 
2 7 3 
2 7 3 
2 7 3 
2 7 3 
2 7 3 
2 7 3 
2 7 3 
2 7 3 
2 7 3 
2 7 3 
2 7 3 
1 7 
1 7 
1 7 
1 7 
1 7 
1 7 
1 7 
1 7 
2 7 3 
1 8 
1 8 
1 8 
1 8 
1 8 
1 8 
1 8 
1 8 
1 8 
1 8 
1 8 
1 8 
1 8 
1 8 
1 8 
1 8 
1 8 
1 8 
1 8 
1 8 
1 8 
1 8 
1 8 
1 8 
1 8 
1 8 
1 8 
1 8 
1 8 
1 8 
1 8 
1 8 
1 9 
1 9 
1 9 
1 9 
1 9 
1 9 
1 9 
1 9 
1 9 
1 9 
1 9 
1 9 
1 9 
1 9 
1 9 
1 9 
1 9 
1 9 
1 9 
1 9 
1 9 
1 9 
1 9 
1 9 
1 9 
1 9 
1 9 
1 9 
1 9 
1 9 
1 9 
1 9 
1 10 
1 10 
1 10 
1 10 
1 10 
1 10 
1 10 
1 10 
1 10 
1 10 
1 10 
1 10 
1 10 
1 10 
1 10 
3 10 7 3 
1 10 
1 10 
3 10 7 3 
1 10 
1 10 
1 10 
1 10 
1 10 
1 10 
1 10 
1 10 
1 10 
1 10 
1 10 
1 10 
3 10 7 3 
1 11 
1 11 
2 11 10 
1 11 
1 11 
1 11 
1 11 
2 11 10 
1 11 
1 11 
2 11 10 
2 11 10 
1 12 
1 12 
1 12 
1 12 
1 12 
1 12 
1 12 
1 12 
1 12 
1 12 
1 12 
1 12 
1 12 
1 12 
1 12 
1 12 
1 12 
1 12 
1 12 
1 12 
1 12 
1 12 
1 13 
1 13 
1 13 
1 13 
1 13 
1 13 
1 13 
1 13 
1 13 
1 13 
1 13 
1 13 
1 14 
1 14 
1 14 
1 14 
1 14 
1 14 
1 14 
2 14 12 
1 14 
2 14 12 
2 14 12 
2 14 12 
2 14 12 
2 14 12 
1 14 
2 14 12 
2 14 12 
2 14 12 
2 14 12 
2 14 12 
2 14 12 
2 14 12 
1 15 
1 15 
1 15 
1 15 
1 15 
1 15 
1 15 
1 15 
1 15 
1 15 
1 15 
1 15 
1 15 
1 15 
1 15 
1 15 
1 15 
1 15 
1 15 
1 15 
1 15 
1 15 
1 16 
1 16 
1 16 
1 16 
3 16 14 12 
1 16 
1 16 
3 16 14 12 
3 16 14 12 
1 16 
1 16 
3 16 14 12 
3 16 14 12 
3 16 14 12 
3 16 14 12 
1 16 
3 16 14 12 
3 16 14 12 
3 16 14 12 
3 16 14 12 
4 16 9 14 12 
4 16 9 14 12 
1 17 
1 17 
2 17 6 
1 17 
1 17 
1 17 
2 17 4 
2 17 6 
4 17 6 8 11 
2 17 2 
1 17 
6 17 2 4 6 8 11 
1 18 
4 18 16 14 12 
2 18 17 
1 18 
1 18 
5 18 16 14 12 17 
5 18 16 14 12 17 
5 18 16 14 12 17 
5 18 16 14 12 17 
5 18 16 14 12 17 
5 18 16 14 12 17 
5 18 16 14 12 17 
1 19 
1 19 
1 19 
2 19 13 
2 19 5 
4 19 5 13 18 
3 19 5 13 
2 19 5 
3 19 5 15 
2 19 13 
2 19 13 
5 19 5 13 15 18 
1 20 
1 20 
1 20 
1 20 
1 20 
4 20 19 5 13 
4 20 19 5 13 
1 20 
1 20 
1 20 
1 20 
4 20 19 5 13 
1 1 
1 1 
1 1 
1 1 
1 1 
1 1 
1 1 
1 1 
1 1 
1 1 
1 1 
1 1 
